GeneratedTests/Random_10/Random_10_5.tsp
NAME: Random_10_5
TYPE: TSP
DIMENSION: 10
EDGE_WEIGHT_TYPE: EUC_2D
NODE_COORD_SECTION
1 2.5741787 23.288826
2 16.4446 23.507877
3 11.800234 4.9057264
4 23.199968 4.434718
5 5.896078 17.248089
6 29.222452 25.14861
7 0.3658229 0.1816982
8 4.410546 1.333226
9 14.18858 21.714474
10 7.375846 15.934101
EOF
