GeneratedTests/Random_10/Random_10_5.txt
NAME: Random_10_5
TYPE: TSP
DIMENSION: 10
EDGE_WEIGHT_TYPE: EUC_2D
NODE_COORD_SECTION
1 22.484707 16.2806
2 24.88735 14.377946
3 28.02895 2.7271307
4 9.29267 12.878405
5 9.2477865 12.59729
6 7.6507545 4.535485
7 15.940169 3.9363456
8 14.921485 5.2994924
9 25.775887 23.438414
10 18.569164 29.718927
EOF
